NAME (null)
OBJSENSE MAX
ROWS
 N  OBJ
 L  R0      
 L  R1      
COLUMNS
    C0        OBJ       5
    C0        R0        1
    C0        R1        2
    C1        OBJ       2
    C1        R0        1
    C1        R1        2
RHS
    RHS1      R0        5
    RHS1      R1        5
BOUNDS
 UP BND1      C0        20
 UP BND1      C1        20
ENDATA
